97 142 152 156 45 85 29 132 131 188 187 130 195 165 112 109 189 101 125 147 81 51 18 119 194 32 160 151 118 175 26 185 172 162 102 90 10 122 141 34 120 60 13 134 191 173 154 6 78 116 91 104 146 171 153 
140 139 84 57 133 169 40 59 128 33 25 5 58 150 166 144 192 41 15 183 55 126 178 103 74 99 17 64 2 92 12 56 75 30 179 124 161 135 19 83 110 
54 174 163 63 24 7 68 167 43 190 61 98 72 27 114 21 129 198 22 44 95 137 121 115 73 11 76 96 157 164 93 47 180 67 
3 4 100 37 199 149 14 168 184 148 111 186 138 181 46 42 1 127 123 87 70 106 196 80 36 182 158 16 66 82 8 88 193 200 39 49 28 9 177 50 53 94 65 159 69 117 89 
48 155 143 62 105 176 77 86 71 145 79 107 
35 197 108 23 38 113 52 
31 170 136 20 

